c User generated cnf file
p cnf 10 50
-10 9 9 0 
4 -4 3 0 
-4 10 9 0 
-2 4 2 0 
4 7 -5 0 
5 5 -7 0 
8 -4 7 0 
6 8 -5 0 
7 8 -6 0 
6 -9 7 0 
7 7 -5 0 
4 -1 3 0 
3 -5 1 0 
3 -3 4 0 
5 -6 5 0 
-8 4 6 0 
8 -10 7 0 
10 3 -4 0 
2 10 -7 0 
7 -7 5 0 
7 4 -2 0 
6 6 -9 0 
-7 4 5 0 
-4 7 3 0 
8 -9 5 0 
3 -1 1 0 
-3 10 6 0 
1 1 -4 0 
-9 7 3 0 
-7 5 8 0 
8 4 -8 0 
1 -7 6 0 
5 -7 2 0 
7 9 -2 0 
7 -10 9 0 
8 -8 10 0 
-8 4 1 0 
3 3 -2 0 
10 3 -8 0 
6 6 -6 0 
5 8 -6 0 
4 -1 10 0 
9 -1 7 0 
6 -10 3 0 
9 9 -2 0 
6 1 -7 0 
4 1 -8 0 
10 5 -7 0 
-2 2 9 0 
9 3 -9 0 
